63848918066380537185013,3,1,2,05,4,1,2,012,3,1,2,011,3,1,2,05,7,1,2,04,8,1,2,010,3,1,2,014,1,1,2,03,15,1,2,010,1,1,2,05,3,1,2,03,5,1,2,012,3,1,2,06,13,1,2,014,5,1,2,011,5,1,2,010,11,1,2,08,14,1,2,011,2,1,2,014,14,1,2,07,3,1,2,02,5,1,2,011,9,1,2,08,12,1,2,01,9,1,2,06,5,1,2,03,3,1,2,015,15,1,2,09,10,1,2,01,1,1,2,011,4,1,2,08,7,1,2,01,4,1,2,01,4,1,2,04,3,1,2,010,14,1,2,010,15,1,2,014,9,1,2,06,3,1,2,011,7,1,2,013,13,1,2,01,5,1,2,014,7,1,2,011,13,1,2,09,4,1,2,014,10,1,2,04,12,1,2,06,2,1,2,07,14,1,2,07,10,1,2,0